Route #1: 37 9 49 47 26 18 4 25
Route #2: 2 7 40 48 34
Route #3: 20 36 11 16 43 33 27
Route #4: 32 5 24 12
Route #5: 39 1 28 29 19 30
Route #6: 13 38 22 14 31 6 44
Route #7: 3 23 35 41 45 46
Route #8: 15 8 17 42 21 10
Cost 1316
Time 0.107625
